# Solution for model obj
# Objective value = 0
s#1 0
s#2 0
s#3 0
s#4 0
s#5 0
x#40 1
x#39 1
x#38 1
x#37 0
x#36 1
x#35 1
x#34 0
x#33 1
x#32 0
x#31 1
x#30 1
x#29 0
x#28 1
x#27 1
x#26 0
x#25 0
x#24 0
x#23 0
x#22 0
x#21 1
x#20 1
x#19 1
x#18 1
x#17 0
x#16 0
x#15 0
x#14 1
x#13 0
x#11 0
x#10 0
x#9 1
x#8 1
x#7 0
x#6 0
x#5 1
x#4 0
x#3 0
x#2 1
x#1 0
x#12 0
